<number of tasks>
30

<cycle time>
41

<task times>
1 8
2 7
3 19
4 10
5 2
6 6
7 14
8 10
9 1
10 4
11 14
12 15
13 5
14 12
15 9
16 10
17 2
18 10
19 18
20 16
21 21
22 14
23 16
24 7
25 17
26 9
27 25
28 7
29 14
30 2

<precedence relations>
1,4
1,5
2,11
2,12
3,16
3,17
4,7
5,6
6,7
7,8
8,9
9,26
10,24
12,13
13,14
14,15
14,20
15,22
16,20
17,18
18,19
20,21
20,24
21,22
22,23
23,27
24,25
25,26
26,27
27,28
27,29
29,30

<setup times forward>
1,2:2
1,3:2
1,4:1
1,5:2
1,10:2
1,12:2
1,15:2
1,16:2
1,18:2
1,19:3
1,20:1
1,21:1
1,22:3
1,23:2
1,24:1
1,25:3
2,1:2
2,4:1
2,7:1
2,8:1
2,9:1
2,11:2
2,17:2
2,19:1
3,1:2
3,4:1
3,7:1
3,8:1
3,9:1
3,11:2
3,13:2
3,14:2
3,17:2
4,2:1
4,3:1
4,5:1
4,6:1
4,10:1
4,11:1
4,12:1
4,13:1
4,14:1
4,15:1
4,16:1
4,17:1
4,18:1
4,19:2
4,22:2
4,23:1
4,25:2
5,4:1
5,11:2
5,13:2
5,14:2
5,17:2
5,19:1
5,20:1
5,21:1
5,22:1
5,24:1
5,25:1
6,4:1
6,7:1
6,11:2
6,13:2
6,14:2
6,17:2
6,19:1
6,20:1
6,21:1
6,22:1
6,24:1
6,25:1
7,2:1
7,3:1
7,10:1
7,11:1
7,12:1
7,13:1
7,14:1
7,15:1
7,16:1
7,17:1
7,18:1
7,19:2
7,22:2
7,23:1
7,25:2
8,2:1
8,3:1
8,9:2
8,10:1
8,11:1
8,12:1
8,13:1
8,14:1
8,15:1
8,16:1
8,17:1
8,18:1
8,19:2
8,22:2
8,23:1
8,25:2
9,2:1
9,3:1
9,10:1
9,11:3
9,12:1
9,13:3
9,14:3
9,15:1
9,16:1
9,17:3
9,18:1
9,20:2
9,21:2
9,23:1
9,24:2
10,1:2
10,4:1
10,7:1
10,8:1
10,9:1
10,11:2
10,13:2
10,14:2
10,17:2
10,19:1
10,20:1
10,21:1
10,22:1
10,24:1
11,3:2
11,4:1
11,5:2
11,6:2
11,7:1
11,8:1
11,9:3
11,10:2
11,12:2
11,15:2
11,16:2
11,18:2
11,19:3
11,20:1
11,21:1
11,22:3
11,23:2
11,24:1
11,25:3
11,26:3
11,27:2
11,28:3
11,29:3
11,30:3
12,1:2
12,4:1
12,7:1
12,8:1
12,9:1
12,11:2
12,13:2
12,17:2
12,19:1
13,3:2
13,4:1
13,5:2
13,6:2
13,7:1
13,8:1
13,9:3
13,10:2
13,16:2
13,18:2
13,19:3
14,3:2
14,4:1
14,5:2
14,6:2
14,7:1
14,8:1
14,9:3
14,10:2
14,15:2
14,16:2
14,18:2
14,19:3
14,20:1
15,1:2
15,4:1
15,7:1
15,8:1
15,9:1
15,11:2
15,17:2
15,19:1
15,20:1
15,21:1
15,22:1
15,24:1
15,25:1
15,26:1
16,1:2
16,4:1
16,7:1
16,8:1
16,9:1
16,11:2
16,13:2
16,14:2
16,17:2
16,19:1
16,20:1
17,2:2
17,4:1
17,5:2
17,6:2
17,7:1
17,8:1
17,9:3
17,10:2
17,12:2
17,15:2
17,16:2
17,18:2
17,20:1
17,21:1
17,22:3
17,23:2
17,24:1
17,25:3
17,26:3
17,27:2
17,28:3
17,29:3
17,30:3
18,1:2
18,4:1
18,7:1
18,8:1
18,9:1
18,11:2
18,13:2
18,14:2
18,19:1
18,20:1
18,21:1
18,22:1
18,24:1
18,25:1
18,26:1
18,28:1
18,29:1
18,30:1
19,1:3
19,2:1
19,4:2
19,5:1
19,6:1
19,7:2
19,8:2
19,10:1
19,11:3
19,12:1
19,13:3
19,14:3
19,15:1
19,16:1
19,20:2
19,21:2
19,23:1
19,24:2
19,27:1
20,1:1
20,5:1
20,6:1
20,9:2
20,10:1
20,11:1
20,15:1
20,17:1
20,18:1
20,19:2
21,1:1
21,5:1
21,6:1
21,9:2
21,10:1
21,11:1
21,15:1
21,17:1
21,18:1
21,19:2
21,22:2
21,25:2
21,26:2
22,1:3
22,4:2
22,5:1
22,6:1
22,7:2
22,8:2
22,10:1
22,11:3
22,17:3
22,18:1
22,23:1
22,24:2
23,1:2
23,4:1
23,7:1
23,8:1
23,9:1
23,11:2
23,17:2
23,19:1
23,24:1
23,25:1
23,26:1
24,1:1
24,5:1
24,6:1
24,9:2
24,11:1
24,15:1
24,17:1
24,18:1
24,19:2
24,22:2
24,23:1
24,25:2
25,1:3
25,4:2
25,5:1
25,6:1
25,7:2
25,8:2
25,11:3
25,15:1
25,17:3
25,18:1
25,21:2
25,23:1
26,11:3
26,15:1
26,17:3
26,18:1
26,21:2
26,23:1
26,27:1
27,11:2
27,17:2
27,19:1
27,28:1
27,29:1
28,11:3
28,17:3
28,18:1
29,11:3
29,17:3
29,18:1
30,11:3
30,17:3
30,18:1

<setup times backward>
1,2:2
1,3:2
1,10:2
1,12:2
1,15:2
1,16:2
1,18:2
1,19:3
1,20:1
1,21:1
1,22:3
1,23:2
1,24:1
1,25:3
2,9:1
2,19:1
3,9:1
4,2:1
4,3:1
4,5:1
4,6:1
4,10:1
4,12:1
4,15:1
4,16:1
4,18:1
4,19:2
4,22:2
4,23:1
4,25:2
5,19:1
5,22:1
5,25:1
6,19:1
6,22:1
6,25:1
7,2:1
7,3:1
7,5:1
7,6:1
7,10:1
7,12:1
7,15:1
7,16:1
7,18:1
7,19:2
7,22:2
7,23:1
7,25:2
8,2:1
8,3:1
8,5:1
8,6:1
8,10:1
8,12:1
8,15:1
8,16:1
8,18:1
8,19:2
8,22:2
8,23:1
8,25:2
10,9:1
10,19:1
10,22:1
11,2:2
11,3:2
11,4:1
11,5:2
11,6:2
11,7:1
11,8:1
11,9:3
11,10:2
11,12:2
11,15:2
11,16:2
11,18:2
11,19:3
11,20:1
11,21:1
11,22:3
11,23:2
11,24:1
11,25:3
11,26:3
11,27:2
11,28:3
11,29:3
11,30:3
12,9:1
12,19:1
13,2:2
13,3:2
13,4:1
13,5:2
13,6:2
13,7:1
13,8:1
13,9:3
13,10:2
13,12:2
13,16:2
13,18:2
13,19:3
14,2:2
14,3:2
14,4:1
14,5:2
14,6:2
14,7:1
14,8:1
14,9:3
14,10:2
14,12:2
14,16:2
14,18:2
14,19:3
15,9:1
15,19:1
15,25:1
15,26:1
16,9:1
16,19:1
17,2:2
17,3:2
17,4:1
17,5:2
17,6:2
17,7:1
17,8:1
17,9:3
17,10:2
17,12:2
17,15:2
17,16:2
17,20:1
17,21:1
17,22:3
17,23:2
17,24:1
17,25:3
17,26:3
17,27:2
17,28:3
17,29:3
17,30:3
18,9:1
18,22:1
18,25:1
18,26:1
18,28:1
18,29:1
18,30:1
20,2:1
20,3:1
20,5:1
20,6:1
20,9:2
20,10:1
20,12:1
20,15:1
20,16:1
20,18:1
20,19:2
21,2:1
21,3:1
21,5:1
21,6:1
21,9:2
21,10:1
21,12:1
21,15:1
21,16:1
21,18:1
21,19:2
21,25:2
21,26:2
23,9:1
23,19:1
23,22:1
23,25:1
23,26:1
24,2:1
24,3:1
24,5:1
24,6:1
24,9:2
24,10:1
24,12:1
24,15:1
24,16:1
24,18:1
24,19:2
24,22:2
24,23:1
27,9:1
27,19:1
27,22:1
27,25:1
27,26:1

<end>

<optimal SALBP-1 value>
8


<rand seed>
467321153

